#%pal nprocs 10 end

! UHF r2scan-3c def2/J RIJCOSX
! Freq

* xyz 0 3
C 0 0 0
*
